
900.0
840.0
630.0
990.0
630.0
1560.0
1050.0
900.0
1110.0
1020.0
1050.0
1020.0
660.0
630.0
1230.0
960.0
630.0
630.0
1050.0
630.0
630.0
720.0
630.0
990.0
900.0
630.0
630.0
750.0
870.0
960.0
810.0
990.0
780.0
690.0
810.0
780.0
840.0
780.0
630.0
930.0
660.0
810.0
960.0
990.0
720.0
690.0
1080.0
1080.0
630.0
630.0
630.0
870.0
1050.0
930.0
900.0
1050.0
630.0
930.0
630.0
870.0
630.0
630.0
630.0
630.0
630.0
1110.0
990.0
1110.0
630.0
630.0
990.0
630.0
630.0
1080.0
810.0
810.0
780.0
810.0
780.0
780.0